; benchmark generated from python API
(set-info :status unknown)
(declare-fun x_month () Int)
(declare-fun x_day () Int)
(declare-fun x_year () Int)
(declare-fun y_month () Int)
(declare-fun y_day () Int)
(declare-fun y_year () Int)
(assert
 (>= x_month 1))
(assert
 (<= x_month 12))
(assert
 (>= x_day 1))
(assert
 (<= x_day 31))
(assert
 (let (($x814 (<= x_day 28)))
 (let (($x703 (<= x_day 29)))
 (let (($x652 (= (mod x_year 400) 0)))
 (let (($x680 (= (mod x_year 4) 0)))
 (let (($x579 (ite (or (and $x680 (and (distinct (mod x_year 100) 0) true)) $x652) $x703 $x814)))
 (let (($x741 (= x_month 2)))
 (ite $x741 $x579 true))))))))
(assert
 (let (($x782 (<= x_day 30)))
 (let (($x241 (or (= x_month 4) (= x_month 6) (= x_month 9) (= x_month 11))))
 (ite $x241 $x782 true))))
(assert
 (>= y_month 1))
(assert
 (<= y_month 12))
(assert
 (>= y_day 1))
(assert
 (<= y_day 31))
(assert
 (let (($x648 (<= y_day 28)))
 (let (($x647 (<= y_day 29)))
 (let (($x608 (= (mod y_year 400) 0)))
 (let (($x704 (= (mod y_year 4) 0)))
 (let (($x619 (ite (or (and $x704 (and (distinct (mod y_year 100) 0) true)) $x608) $x647 $x648)))
 (let (($x821 (= y_month 2)))
 (ite $x821 $x619 true))))))))
(assert
 (let (($x385 (<= y_day 30)))
 (let (($x761 (= y_month 4)))
 (let (($x380 (or $x761 (= y_month 6) (= y_month 9) (= y_month 11))))
 (ite $x380 $x385 true)))))
(assert
 (let (($x593 (= x_day 31)))
 (let (($x677 (= x_month 1)))
 (let (($x674 (= x_year 2023)))
 (and $x674 $x677 $x593)))))
(assert
 (let (($x276 (or (= (+ (mod (- (+ x_month 3) 1) 12) 1) 4) (= (+ (mod (- (+ x_month 3) 1) 12) 1) 6) (= (+ (mod (- (+ x_month 3) 1) 12) 1) 9) (= (+ (mod (- (+ x_month 3) 1) 12) 1) 11))))
 (let ((?x149 (+ (+ x_year 0) (div (- (+ x_month 3) 1) 12))))
 (let (($x388 (or (and (= (mod ?x149 4) 0) (and (distinct (mod ?x149 100) 0) true)) (= (mod ?x149 400) 0))))
 (let ((?x645 (ite (= (+ (mod (- (+ x_month 3) 1) 12) 1) 2) (ite $x388 29 28) (ite $x276 30 31))))
 (let ((?x452 (ite (< x_day 1) 1 (ite (> x_day ?x645) ?x645 x_day))))
 (let ((?x273 (ite (< ?x452 1) 1 (ite (> ?x452 ?x645) ?x645 ?x452))))
 (let (($x203 (and (= (mod (+ ?x149 (* (div 0 146097) 400)) 4) 0) (and (distinct (mod (+ ?x149 (* (div 0 146097) 400)) 100) 0) true))))
 (let (($x216 (or $x203 (= (mod (+ ?x149 (* (div 0 146097) 400)) 400) 0))))
 (let ((?x219 (ite (= 1 (+ (mod (- (+ x_month 3) 1) 12) 1)) (ite $x216 0 0) 0)))
 (let ((?x835 (ite (= 2 (+ (mod (- (+ x_month 3) 1) 12) 1)) (ite $x216 31 31) ?x219)))
 (let ((?x793 (ite (= 3 (+ (mod (- (+ x_month 3) 1) 12) 1)) (ite $x216 60 59) ?x835)))
 (let ((?x836 (ite (= 4 (+ (mod (- (+ x_month 3) 1) 12) 1)) (ite $x216 91 90) ?x793)))
 (let ((?x584 (ite (= 5 (+ (mod (- (+ x_month 3) 1) 12) 1)) (ite $x216 121 120) ?x836)))
 (let ((?x423 (ite (= 6 (+ (mod (- (+ x_month 3) 1) 12) 1)) (ite $x216 152 151) ?x584)))
 (let ((?x708 (ite (= 7 (+ (mod (- (+ x_month 3) 1) 12) 1)) (ite $x216 182 181) ?x423)))
 (let ((?x667 (ite (= 8 (+ (mod (- (+ x_month 3) 1) 12) 1)) (ite $x216 213 212) ?x708)))
 (let ((?x848 (ite (= 9 (+ (mod (- (+ x_month 3) 1) 12) 1)) (ite $x216 244 243) ?x667)))
 (let ((?x104 (ite (= 10 (+ (mod (- (+ x_month 3) 1) 12) 1)) (ite $x216 274 273) ?x848)))
 (let ((?x786 (ite (= 11 (+ (mod (- (+ x_month 3) 1) 12) 1)) (ite $x216 305 304) ?x104)))
 (let ((?x759 (ite (= 12 (+ (mod (- (+ x_month 3) 1) 12) 1)) (ite $x216 335 334) ?x786)))
 (let ((?x720 (+ (* 365 (- (+ ?x149 (* (div 0 146097) 400)) 1)) (div (- (+ ?x149 (* (div 0 146097) 400)) 1) 4))))
 (let ((?x245 (+ (- ?x720 (div (- (+ ?x149 (* (div 0 146097) 400)) 1) 100)) (div (- (+ ?x149 (* (div 0 146097) 400)) 1) 400))))
 (let ((?x746 (+ (+ (+ ?x245 ?x759) (- ?x273 1)) (mod 0 146097))))
 (let ((?x200 (mod ?x746 146097)))
 (let ((?x872 (div ?x200 36524)))
 (let ((?x186 (ite (<= 4 ?x872) 3 ?x872)))
 (let ((?x768 (- ?x200 (* ?x186 36524))))
 (let ((?x668 (mod ?x768 1461)))
 (let ((?x764 (div ?x668 365)))
 (let ((?x727 (ite (<= 4 ?x764) 3 ?x764)))
 (let ((?x490 (+ (+ (* (div ?x746 146097) 400) (* ?x186 100)) (* (div ?x768 1461) 4))))
 (let ((?x486 (+ (+ ?x490 ?x727) 1)))
 (let (($x566 (or (and (= (mod ?x486 4) 0) (and (distinct (mod ?x486 100) 0) true)) (= (mod ?x486 400) 0))))
 (let ((?x638 (- ?x668 (* ?x727 365))))
 (let ((?x497 (ite $x566 31 31)))
 (let (($x294 (>= ?x638 ?x497)))
 (let ((?x437 (ite $x294 (+ (- ?x638 ?x497) 1) (+ (- ?x638 (ite $x566 0 0)) 1))))
 (let ((?x484 (ite $x566 60 59)))
 (let (($x422 (>= ?x638 ?x484)))
 (let ((?x454 (ite $x566 91 90)))
 (let (($x392 (>= ?x638 ?x454)))
 (let ((?x419 (ite $x392 (+ (- ?x638 ?x454) 1) (ite $x422 (+ (- ?x638 ?x484) 1) ?x437))))
 (let ((?x581 (ite $x566 121 120)))
 (let (($x466 (>= ?x638 ?x581)))
 (let ((?x547 (ite $x566 152 151)))
 (let (($x425 (>= ?x638 ?x547)))
 (let ((?x494 (ite $x425 (+ (- ?x638 ?x547) 1) (ite $x466 (+ (- ?x638 ?x581) 1) ?x419))))
 (let ((?x570 (ite $x566 182 181)))
 (let (($x427 (>= ?x638 ?x570)))
 (let ((?x224 (ite $x566 213 212)))
 (let (($x429 (>= ?x638 ?x224)))
 (let ((?x111 (ite $x429 (+ (- ?x638 ?x224) 1) (ite $x427 (+ (- ?x638 ?x570) 1) ?x494))))
 (let ((?x550 (ite $x566 244 243)))
 (let (($x434 (>= ?x638 ?x550)))
 (let ((?x695 (ite $x566 274 273)))
 (let (($x279 (>= ?x638 ?x695)))
 (let ((?x563 (ite $x279 (+ (- ?x638 ?x695) 1) (ite $x434 (+ (- ?x638 ?x550) 1) ?x111))))
 (let ((?x436 (ite $x566 305 304)))
 (let (($x449 (>= ?x638 ?x436)))
 (let ((?x725 (ite $x566 335 334)))
 (let (($x460 (>= ?x638 ?x725)))
 (let ((?x489 (ite $x460 (+ (- ?x638 ?x725) 1) (ite $x449 (+ (- ?x638 ?x436) 1) ?x563))))
 (let (($x267 (= 0 0)))
 (let ((?x424 (ite $x466 5 (ite $x392 4 (ite $x422 3 (ite $x294 2 1))))))
 (let ((?x301 (ite $x434 9 (ite $x429 8 (ite $x427 7 (ite $x425 6 ?x424))))))
 (let ((?x125 (+ (mod (- (+ x_month 3) 1) 12) 1)))
 (let (($x147 (= y_month (ite $x267 ?x125 (ite $x460 12 (ite $x449 11 (ite $x279 10 ?x301)))))))
 (and (= y_year (ite $x267 ?x149 ?x486)) $x147 (= y_day (ite $x267 ?x273 ?x489)))))))))))))))))))))))))))))))))))))))))))))))))))))))))))))))))))))))
(assert
 (let (($x122 (= y_day 30)))
(let (($x761 (= y_month 4)))
(let (($x280 (= y_year 2023)))
(and $x280 $x761 $x122)))))
(check-sat)
